c File: instances/12_0.40_3.col
c
c Description: Random graph of size 12 vertices and P(0.39999999999999997) of edges between any two vertices.
p col 12 66
e 1 2
e 1 3
e 1 4
e 1 5
e 1 9
e 1 11
e 2 3
e 2 6
e 2 7
e 2 8
e 3 5
e 3 6
e 3 8
e 3 9
e 4 5
e 4 6
e 4 8
e 4 10
e 4 11
e 5 6
e 5 7
e 7 8
e 7 9
e 7 11
e 10 11
e 11 12